(set-logic HORN)
(declare-datatypes ((Nat_365 0)) (((zero_83 ) (succ_81 (p_228 Nat_365)))))
(declare-fun diseqNat_365 (Nat_365 Nat_365) Bool)
(declare-fun p_230 (Nat_365 Nat_365) Bool)
(declare-fun iszero_81 (Nat_365) Bool)
(declare-fun issucc_81 (Nat_365) Bool)
(assert (forall ((x_34268 Nat_365))
	(p_230 x_34268 (succ_81 x_34268))))
(assert (iszero_81 zero_83))
(assert (forall ((x_34270 Nat_365))
	(issucc_81 (succ_81 x_34270))))
(assert (forall ((x_34271 Nat_365))
	(diseqNat_365 zero_83 (succ_81 x_34271))))
(assert (forall ((x_34272 Nat_365))
	(diseqNat_365 (succ_81 x_34272) zero_83)))
(assert (forall ((x_34273 Nat_365) (x_34274 Nat_365))
	(=> (diseqNat_365 x_34273 x_34274)
	    (diseqNat_365 (succ_81 x_34273) (succ_81 x_34274)))))
(declare-datatypes ((Integer_4 0)) (((P_229 (projP_8 Nat_365)) (N_69 (projN_8 Nat_365)))))
(declare-fun diseqInteger_4 (Integer_4 Integer_4) Bool)
(declare-fun projP_9 (Nat_365 Integer_4) Bool)
(declare-fun projN_9 (Nat_365 Integer_4) Bool)
(declare-fun isP_5 (Integer_4) Bool)
(declare-fun isN_4 (Integer_4) Bool)
(assert (forall ((x_34275 Nat_365))
	(projP_9 x_34275 (P_229 x_34275))))
(assert (forall ((x_34277 Nat_365))
	(projN_9 x_34277 (N_69 x_34277))))
(assert (forall ((x_34279 Nat_365))
	(isP_5 (P_229 x_34279))))
(assert (forall ((x_34280 Nat_365))
	(isN_4 (N_69 x_34280))))
(assert (forall ((x_34281 Nat_365) (x_34282 Nat_365))
	(diseqInteger_4 (P_229 x_34281) (N_69 x_34282))))
(assert (forall ((x_34283 Nat_365) (x_34284 Nat_365))
	(diseqInteger_4 (N_69 x_34283) (P_229 x_34284))))
(assert (forall ((x_34285 Nat_365) (x_34286 Nat_365))
	(=> (diseqNat_365 x_34285 x_34286)
	    (diseqInteger_4 (P_229 x_34285) (P_229 x_34286)))))
(assert (forall ((x_34287 Nat_365) (x_34288 Nat_365))
	(=> (diseqNat_365 x_34287 x_34288)
	    (diseqInteger_4 (N_69 x_34287) (N_69 x_34288)))))
(declare-fun plus_74 (Nat_365 Nat_365 Nat_365) Bool)
(assert (forall ((x_34229 Nat_365) (z_1239 Nat_365) (y_1336 Nat_365))
	(=> (plus_74 x_34229 z_1239 y_1336)
	    (plus_74 (succ_81 x_34229) (succ_81 z_1239) y_1336))))
(assert (forall ((x_34230 Nat_365))
	(plus_74 x_34230 zero_83 x_34230)))
(declare-fun x_34217 (Integer_4 Nat_365 Nat_365) Bool)
(assert (forall ((x_34219 Nat_365) (z_1240 Nat_365) (fail_16 Integer_4))
	(=> (x_34217 fail_16 x_34219 z_1240)
	    (x_34217 fail_16 (succ_81 x_34219) (succ_81 z_1240)))))
(assert (forall ((x_34221 Nat_365))
	(x_34217 (N_69 (succ_81 x_34221)) zero_83 (succ_81 x_34221))))
(assert (forall ((x_34220 Nat_365))
	(x_34217 (P_229 (succ_81 x_34220)) (succ_81 x_34220) zero_83)))
(assert (x_34217 (P_229 zero_83) zero_83 zero_83))
(declare-fun plus_75 (Integer_4 Integer_4 Integer_4) Bool)
(assert (forall ((x_34244 Nat_365) (x_34245 Nat_365) (n_70 Nat_365) (m_27 Nat_365))
	(=>	(and (plus_74 x_34244 (succ_81 zero_83) m_27)
			(plus_74 x_34245 x_34244 n_70))
		(plus_75 (N_69 x_34245) (N_69 m_27) (N_69 n_70)))))
(assert (forall ((x_34246 Integer_4) (x_34247 Nat_365) (n_71 Nat_365) (m_27 Nat_365))
	(=>	(and (plus_74 x_34247 (succ_81 zero_83) m_27)
			(x_34217 x_34246 n_71 x_34247))
		(plus_75 x_34246 (N_69 m_27) (P_229 n_71)))))
(assert (forall ((x_34249 Integer_4) (x_34250 Nat_365) (o_3 Nat_365) (m_28 Nat_365))
	(=>	(and (plus_74 x_34250 (succ_81 zero_83) o_3)
			(x_34217 x_34249 m_28 x_34250))
		(plus_75 x_34249 (P_229 m_28) (N_69 o_3)))))
(assert (forall ((x_34253 Nat_365) (n_72 Nat_365) (m_28 Nat_365))
	(=> (plus_74 x_34253 m_28 n_72)
	    (plus_75 (P_229 x_34253) (P_229 m_28) (P_229 n_72)))))
(assert (forall ((x_34254 Integer_4) (x_34255 Integer_4) (x_34256 Integer_4) (x_34257 Integer_4) (x_34223 Integer_4) (y_1339 Integer_4) (z_1241 Integer_4))
	(=>	(and true
			(diseqInteger_4 x_34255 x_34257)
			(plus_75 x_34254 y_1339 z_1241)
			(plus_75 x_34255 x_34223 x_34254)
			(plus_75 x_34256 x_34223 y_1339)
			(plus_75 x_34257 x_34256 z_1241))
		false)))
(assert (forall ((x_34258 Nat_365) (x_34259 Nat_365) (x_34260 Nat_365) (x_34261 Nat_365) (x_34224 Nat_365) (y_1340 Nat_365) (z_1242 Nat_365))
	(=>	(and true
			(diseqNat_365 x_34259 x_34261)
			(plus_74 x_34258 y_1340 z_1242)
			(plus_74 x_34259 x_34224 x_34258)
			(plus_74 x_34260 x_34224 y_1340)
			(plus_74 x_34261 x_34260 z_1242))
		false)))
(assert (forall ((x_34262 Nat_365) (x_34263 Nat_365) (x_34225 Nat_365) (y_1341 Nat_365))
	(=>	(and true
			(diseqNat_365 x_34262 x_34263)
			(plus_74 x_34262 x_34225 y_1341)
			(plus_74 x_34263 y_1341 x_34225))
		false)))
(assert (forall ((x_34264 Nat_365) (x_34226 Nat_365))
	(=>	(and true
			(diseqNat_365 x_34264 x_34226)
			(plus_74 x_34264 x_34226 zero_83))
		false)))
(assert (forall ((x_34265 Nat_365) (x_34227 Nat_365))
	(=>	(and true
			(diseqNat_365 x_34265 x_34227)
			(plus_74 x_34265 zero_83 x_34227))
		false)))
(check-sat)
